certificates/rado_a14_c248_N40.cnf
c Rad2 upper bound instance: x1 + 14*x2 - x3 = 248, interval [1,40]
p cnf 40 228
1 5 18 0
-1 -5 -18 0
1 19 0
-1 -19 0
1 20 33 0
-1 -20 -33 0
2 6 18 0
-2 -6 -18 0
2 19 20 0
-2 -19 -20 0
2 20 34 0
-2 -20 -34 0
3 7 18 0
-3 -7 -18 0
3 19 21 0
-3 -19 -21 0
3 20 35 0
-3 -20 -35 0
4 8 18 0
-4 -8 -18 0
4 19 22 0
-4 -19 -22 0
4 20 36 0
-4 -20 -36 0
5 9 18 0
-5 -9 -18 0
5 19 23 0
-5 -19 -23 0
5 20 37 0
-5 -20 -37 0
6 10 18 0
-6 -10 -18 0
6 19 24 0
-6 -19 -24 0
6 20 38 0
-6 -20 -38 0
7 11 18 0
-7 -11 -18 0
7 19 25 0
-7 -19 -25 0
7 20 39 0
-7 -20 -39 0
8 12 18 0
-8 -12 -18 0
8 19 26 0
-8 -19 -26 0
8 20 40 0
-8 -20 -40 0
9 13 18 0
-9 -13 -18 0
9 19 27 0
-9 -19 -27 0
10 14 18 0
-10 -14 -18 0
10 19 28 0
-10 -19 -28 0
1 11 17 0
-1 -11 -17 0
11 15 18 0
-11 -15 -18 0
11 19 29 0
-11 -19 -29 0
2 12 17 0
-2 -12 -17 0
12 16 18 0
-12 -16 -18 0
12 19 30 0
-12 -19 -30 0
3 13 17 0
-3 -13 -17 0
13 17 18 0
-13 -17 -18 0
13 19 31 0
-13 -19 -31 0
4 14 17 0
-4 -14 -17 0
14 18 0
-14 -18 0
14 19 32 0
-14 -19 -32 0
5 15 17 0
-5 -15 -17 0
15 18 19 0
-15 -18 -19 0
15 19 33 0
-15 -19 -33 0
6 16 17 0
-6 -16 -17 0
16 18 20 0
-16 -18 -20 0
16 19 34 0
-16 -19 -34 0
7 17 0
-7 -17 0
17 18 21 0
-17 -18 -21 0
17 19 35 0
-17 -19 -35 0
8 17 18 0
-8 -17 -18 0
18 22 0
-18 -22 0
18 19 36 0
-18 -19 -36 0
9 17 19 0
-9 -17 -19 0
18 19 23 0
-18 -19 -23 0
19 37 0
-19 -37 0
10 17 20 0
-10 -17 -20 0
18 20 24 0
-18 -20 -24 0
19 20 38 0
-19 -20 -38 0
11 17 21 0
-11 -17 -21 0
18 21 25 0
-18 -21 -25 0
19 21 39 0
-19 -21 -39 0
12 17 22 0
-12 -17 -22 0
18 22 26 0
-18 -22 -26 0
19 22 40 0
-19 -22 -40 0
13 17 23 0
-13 -17 -23 0
18 23 27 0
-18 -23 -27 0
14 17 24 0
-14 -17 -24 0
18 24 28 0
-18 -24 -28 0
1 16 25 0
-1 -16 -25 0
15 17 25 0
-15 -17 -25 0
18 25 29 0
-18 -25 -29 0
2 16 26 0
-2 -16 -26 0
16 17 26 0
-16 -17 -26 0
18 26 30 0
-18 -26 -30 0
3 16 27 0
-3 -16 -27 0
17 27 0
-17 -27 0
18 27 31 0
-18 -27 -31 0
4 16 28 0
-4 -16 -28 0
17 18 28 0
-17 -18 -28 0
18 28 32 0
-18 -28 -32 0
5 16 29 0
-5 -16 -29 0
17 19 29 0
-17 -19 -29 0
18 29 33 0
-18 -29 -33 0
6 16 30 0
-6 -16 -30 0
17 20 30 0
-17 -20 -30 0
18 30 34 0
-18 -30 -34 0
7 16 31 0
-7 -16 -31 0
17 21 31 0
-17 -21 -31 0
18 31 35 0
-18 -31 -35 0
8 16 32 0
-8 -16 -32 0
17 22 32 0
-17 -22 -32 0
18 32 36 0
-18 -32 -36 0
9 16 33 0
-9 -16 -33 0
17 23 33 0
-17 -23 -33 0
18 33 37 0
-18 -33 -37 0
10 16 34 0
-10 -16 -34 0
17 24 34 0
-17 -24 -34 0
18 34 38 0
-18 -34 -38 0
11 16 35 0
-11 -16 -35 0
17 25 35 0
-17 -25 -35 0
18 35 39 0
-18 -35 -39 0
12 16 36 0
-12 -16 -36 0
17 26 36 0
-17 -26 -36 0
18 36 40 0
-18 -36 -40 0
13 16 37 0
-13 -16 -37 0
17 27 37 0
-17 -27 -37 0
14 16 38 0
-14 -16 -38 0
17 28 38 0
-17 -28 -38 0
1 15 39 0
-1 -15 -39 0
15 16 39 0
-15 -16 -39 0
17 29 39 0
-17 -29 -39 0
2 15 40 0
-2 -15 -40 0
16 40 0
-16 -40 0
17 30 40 0
-17 -30 -40 0
