certificates/rado_a14_c248_N40.drat
19 -38 -39 16 0
-19 -40 0
-39 -40 0
18 -40 0
-40 0
16 0
-18 0
14 0
22 0
36 0
-38 0
-12 0
34 0
8 0
-19 0
-10 0
-32 0
1 0
37 0
20 0
15 0
23 0
30 0
6 0
28 0
-25 0
-13 0
-33 0
-2 0
-5 0
-4 0
-39 0
-17 0
0
